Cost: 467
0-34-52-46-26-0
0-44-32-40-0
0-7-14-19-8-0
0-25-9-12-0
0-22-1-23-24-0
0-27-13-15-45-0
0-30-29-4-0
0-17-33-2-0
Cost: 467
0-30-29-4-0
0-40-32-44-0
0-24-23-1-22-0
0-8-19-14-7-0
0-45-15-13-27-0
0-26-46-52-34-0
0-25-9-12-0
0-2-33-17-0
Cost: 467
0-34-52-46-26-0
0-44-32-40-0
0-7-14-19-8-0
0-25-9-12-0
0-22-1-23-24-0
0-27-13-15-45-0
0-30-29-4-0
0-17-33-2-0
Cost: 467
0-34-52-46-26-0
0-44-32-40-0
0-7-14-19-8-0
0-25-9-12-0
0-22-1-23-24-0
0-27-13-15-45-0
0-30-29-4-0
0-17-33-2-0
Cost: 467
0-34-52-46-26-0
0-44-32-40-0
0-7-14-19-8-0
0-25-9-12-0
0-22-1-23-24-0
0-27-13-15-45-0
0-30-29-4-0
0-17-33-2-0
Cost: 467
0-34-52-46-26-0
0-44-32-40-0
0-7-14-19-8-0
0-25-9-12-0
0-22-1-23-24-0
0-27-13-15-45-0
0-30-29-4-0
0-17-33-2-0
Cost: 467
0-34-52-46-26-0
0-44-32-40-0
0-7-14-19-8-0
0-25-9-12-0
0-22-1-23-24-0
0-27-13-15-45-0
0-30-29-4-0
0-17-33-2-0
Cost: 467
0-34-52-46-26-0
0-44-32-40-0
0-7-14-19-8-0
0-25-9-12-0
0-22-1-23-24-0
0-27-13-15-45-0
0-30-29-4-0
0-17-33-2-0
Cost: 467
0-34-52-46-26-0
0-44-32-40-0
0-7-14-19-8-0
0-25-9-12-0
0-22-1-23-24-0
0-27-13-15-45-0
0-30-29-4-0
0-17-33-2-0
Cost: 467
0-34-52-46-26-0
0-44-32-40-0
0-7-14-19-8-0
0-25-9-12-0
0-22-1-23-24-0
0-27-13-15-45-0
0-30-29-4-0
0-17-33-2-0
Cost: 467
0-34-52-46-26-0
0-44-32-40-0
0-7-14-19-8-0
0-25-9-12-0
0-22-1-23-24-0
0-27-13-15-45-0
0-30-29-4-0
0-17-33-2-0
Cost: 467
0-34-52-46-26-0
0-44-32-40-0
0-7-14-19-8-0
0-25-9-12-0
0-22-1-23-24-0
0-27-13-15-45-0
0-30-29-4-0
0-17-33-2-0
Cost: 467
0-34-52-46-26-0
0-44-32-40-0
0-7-14-19-8-0
0-25-9-12-0
0-22-1-23-24-0
0-27-13-15-45-0
0-30-29-4-0
0-17-33-2-0
Cost: 467
0-34-52-46-26-0
0-44-32-40-0
0-7-14-19-8-0
0-25-9-12-0
0-22-1-23-24-0
0-27-13-15-45-0
0-30-29-4-0
0-17-33-2-0
Cost: 467
0-34-52-46-26-0
0-44-32-40-0
0-7-14-19-8-0
0-25-9-12-0
0-22-1-23-24-0
0-27-13-15-45-0
0-30-29-4-0
0-17-33-2-0
Cost: 467
0-34-52-46-26-0
0-44-32-40-0
0-7-14-19-8-0
0-25-9-12-0
0-22-1-23-24-0
0-27-13-15-45-0
0-30-29-4-0
0-17-33-2-0
Cost: 467
0-34-52-46-26-0
0-44-32-40-0
0-7-14-19-8-0
0-25-9-12-0
0-22-1-23-24-0
0-27-13-15-45-0
0-30-29-4-0
0-17-33-2-0
Cost: 467
0-34-52-46-26-0
0-44-32-40-0
0-7-14-19-8-0
0-25-9-12-0
0-22-1-23-24-0
0-27-13-15-45-0
0-30-29-4-0
0-17-33-2-0
Cost: 467
0-34-52-46-26-0
0-44-32-40-0
0-7-14-19-8-0
0-25-9-12-0
0-22-1-23-24-0
0-27-13-15-45-0
0-30-29-4-0
0-17-33-2-0
Cost: 467
0-34-52-46-26-0
0-44-32-40-0
0-7-14-19-8-0
0-25-9-12-0
0-22-1-23-24-0
0-27-13-15-45-0
0-30-29-4-0
0-17-33-2-0
Cost: 467
0-34-52-46-26-0
0-44-32-40-0
0-7-14-19-8-0
0-25-9-12-0
0-22-1-23-24-0
0-27-13-15-45-0
0-30-29-4-0
0-17-33-2-0
Cost: 467
0-34-52-46-26-0
0-44-32-40-0
0-7-14-19-8-0
0-25-9-12-0
0-22-1-23-24-0
0-27-13-15-45-0
0-30-29-4-0
0-17-33-2-0
Cost: 467
0-26-46-52-34-0
0-40-32-44-0
0-30-29-4-0
0-12-9-25-0
0-2-33-17-0
0-45-15-13-27-0
0-8-19-14-7-0
0-22-1-23-24-0
Cost: 467
0-34-52-46-26-0
0-44-32-40-0
0-7-14-19-8-0
0-25-9-12-0
0-22-1-23-24-0
0-27-13-15-45-0
0-30-29-4-0
0-17-33-2-0
Cost: 467
0-34-52-46-26-0
0-44-32-40-0
0-7-14-19-8-0
0-25-9-12-0
0-22-1-23-24-0
0-27-13-15-45-0
0-30-29-4-0
0-17-33-2-0
Cost: 467
0-34-52-46-26-0
0-44-32-40-0
0-7-14-19-8-0
0-25-9-12-0
0-22-1-23-24-0
0-27-13-15-45-0
0-30-29-4-0
0-17-33-2-0
Cost: 0
Cost: 0
Cost: 0
Cost: 0
Cost: 467
0-30-29-4-0
0-25-9-12-0
0-24-23-1-22-0
0-2-33-17-0
0-8-19-14-7-0
0-34-52-46-26-0
0-27-13-15-45-0
0-40-32-44-0
